\* Probes_Placement_Model *\
Maximize
Total_Cost: 98304 SDMC_0_10_0_0 + 98304 SDMC_0_11_0_0 + 589824 SDMC_0_12_0_0
 + 393216 SDMC_0_13_0_0 + 196608 SDMC_0_14_0_0 + 98304 SDMC_0_15_0_0
 + 196608 SDMC_0_16_0_0 + 688128 SDMC_0_17_0_0 + 786432 SDMC_0_18_0_0
 + 98304 SDMC_0_19_0_0 + 49152 SDMC_0_1_0_0 + 491520 SDMC_0_20_0_0
 + 2236416 SDMC_0_21_0_0 + 49152 SDMC_0_22_0_0 + 98304 SDMC_0_23_0_0
 + 98304 SDMC_0_24_0_0 + 2138112 SDMC_0_25_0_0 + 98304 SDMC_0_26_0_0
 + 245760 SDMC_0_27_0_0 + 98304 SDMC_0_28_0_0 + 98304 SDMC_0_29_0_0
 + 147456 SDMC_0_2_0_0 + 73728 SDMC_0_3_0_0 + 1744896 SDMC_0_4_0_0
 + 270336 SDMC_0_5_0_0 + 73728 SDMC_0_6_0_0 + 172032 SDMC_0_7_0_0
 + 98304 SDMC_0_8_0_0 + 196608 SDMC_0_9_0_0 + 24576 SDMC_10_11_0_0
 + 221184 SDMC_10_12_0_0 + 172032 SDMC_10_13_0_0 + 122880 SDMC_10_14_0_0
 + 24576 SDMC_10_15_0_0 + 122880 SDMC_10_16_0_0 + 245760 SDMC_10_17_0_0
 + 270336 SDMC_10_18_0_0 + 24576 SDMC_10_19_0_0 + 196608 SDMC_10_20_0_0
 + 24576 SDMC_10_21_0_0 + 344064 SDMC_10_22_0_0 + 1105920 SDMC_10_23_0_0
 + 73728 SDMC_10_24_0_0 + 98304 SDMC_10_25_0_0 + 24576 SDMC_10_26_0_0
 + 761856 SDMC_10_27_0_0 + 98304 SDMC_10_28_0_0 + 98304 SDMC_10_29_0_0
 + 172032 SDMC_11_12_0_0 + 98304 SDMC_11_13_0_0 + 49152 SDMC_11_14_0_0
 + 24576 SDMC_11_15_0_0 + 49152 SDMC_11_16_0_0 + 24576 SDMC_11_17_0_0
 + 24576 SDMC_11_18_0_0 + 24576 SDMC_11_19_0_0 + 122880 SDMC_11_20_0_0
 + 24576 SDMC_11_21_0_0 + 24576 SDMC_11_22_0_0 + 73728 SDMC_11_23_0_0
 + 24576 SDMC_11_24_0_0 + 98304 SDMC_11_25_0_0 + 24576 SDMC_11_26_0_0
 + 49152 SDMC_11_27_0_0 + 24576 SDMC_11_28_0_0 + 24576 SDMC_11_29_0_0
 + 1032192 SDMC_12_13_0_0 + 638976 SDMC_12_14_0_0 + 196608 SDMC_12_15_0_0
 + 73728 SDMC_12_16_0_0 + 1302528 SDMC_12_17_0_0 + 1179648 SDMC_12_18_0_0
 + 98304 SDMC_12_19_0_0 + 1449984 SDMC_12_20_0_0 + 122880 SDMC_12_21_0_0
 + 122880 SDMC_12_22_0_0 + 368640 SDMC_12_23_0_0 + 122880 SDMC_12_24_0_0
 + 491520 SDMC_12_25_0_0 + 122880 SDMC_12_26_0_0 + 245760 SDMC_12_27_0_0
 + 49152 SDMC_12_28_0_0 + 442368 SDMC_12_29_0_0 + 49152 SDMC_12_8_0_0
 + 1007616 SDMC_13_14_0_0 + 344064 SDMC_13_15_0_0 + 147456 SDMC_13_16_0_0
 + 737280 SDMC_13_17_0_0 + 663552 SDMC_13_18_0_0 + 73728 SDMC_13_19_0_0
 + 811008 SDMC_13_20_0_0 + 73728 SDMC_13_21_0_0 + 73728 SDMC_13_22_0_0
 + 221184 SDMC_13_23_0_0 + 73728 SDMC_13_24_0_0 + 294912 SDMC_13_25_0_0
 + 73728 SDMC_13_26_0_0 + 147456 SDMC_13_27_0_0 + 73728 SDMC_13_28_0_0
 + 663552 SDMC_13_29_0_0 + 24576 SDMC_14_15_0_0 + 49152 SDMC_14_16_0_0
 + 245760 SDMC_14_17_0_0 + 221184 SDMC_14_18_0_0 + 24576 SDMC_14_19_0_0
 + 270336 SDMC_14_20_0_0 + 24576 SDMC_14_21_0_0 + 24576 SDMC_14_22_0_0
 + 73728 SDMC_14_23_0_0 + 24576 SDMC_14_24_0_0 + 98304 SDMC_14_25_0_0
 + 24576 SDMC_14_26_0_0 + 49152 SDMC_14_27_0_0 + 24576 SDMC_14_28_0_0
 + 712704 SDMC_14_29_0_0 + 49152 SDMC_15_16_0_0 + 245760 SDMC_15_17_0_0
 + 221184 SDMC_15_18_0_0 + 24576 SDMC_15_19_0_0 + 270336 SDMC_15_20_0_0
 + 24576 SDMC_15_21_0_0 + 24576 SDMC_15_22_0_0 + 73728 SDMC_15_23_0_0
 + 24576 SDMC_15_24_0_0 + 98304 SDMC_15_25_0_0 + 24576 SDMC_15_26_0_0
 + 49152 SDMC_15_27_0_0 + 24576 SDMC_15_28_0_0 + 24576 SDMC_15_29_0_0
 + 49152 SDMC_16_17_0_0 + 73728 SDMC_16_18_0_0 + 24576 SDMC_16_19_0_0
 + 24576 SDMC_16_20_0_0 + 24576 SDMC_16_21_0_0 + 24576 SDMC_16_22_0_0
 + 73728 SDMC_16_23_0_0 + 24576 SDMC_16_24_0_0 + 98304 SDMC_16_25_0_0
 + 24576 SDMC_16_26_0_0 + 49152 SDMC_16_27_0_0 + 688128 SDMC_16_28_0_0
 + 172032 SDMC_16_29_0_0 + 1449984 SDMC_17_18_0_0 + 122880 SDMC_17_19_0_0
 + 1204224 SDMC_17_20_0_0 + 147456 SDMC_17_21_0_0 + 147456 SDMC_17_22_0_0
 + 442368 SDMC_17_23_0_0 + 147456 SDMC_17_24_0_0 + 589824 SDMC_17_25_0_0
 + 147456 SDMC_17_26_0_0 + 294912 SDMC_17_27_0_0 + 73728 SDMC_17_28_0_0
 + 393216 SDMC_17_29_0_0 + 73728 SDMC_17_8_0_0 + 147456 SDMC_18_19_0_0
 + 1155072 SDMC_18_20_0_0 + 172032 SDMC_18_21_0_0 + 172032 SDMC_18_22_0_0
 + 516096 SDMC_18_23_0_0 + 172032 SDMC_18_24_0_0 + 688128 SDMC_18_25_0_0
 + 172032 SDMC_18_26_0_0 + 344064 SDMC_18_27_0_0 + 98304 SDMC_18_28_0_0
 + 368640 SDMC_18_29_0_0 + 98304 SDMC_18_8_0_0 + 49152 SDMC_19_20_0_0
 + 24576 SDMC_19_21_0_0 + 24576 SDMC_19_22_0_0 + 73728 SDMC_19_23_0_0
 + 24576 SDMC_19_24_0_0 + 98304 SDMC_19_25_0_0 + 24576 SDMC_19_26_0_0
 + 49152 SDMC_19_27_0_0 + 24576 SDMC_19_28_0_0 + 24576 SDMC_19_29_0_0
 + 98304 SDMC_19_5_0_0 + 24576 SDMC_19_6_0_0 + 49152 SDMC_19_7_0_0
 + 24576 SDMC_19_8_0_0 + 24576 SDMC_1_10_0_0 + 24576 SDMC_1_11_0_0
 + 147456 SDMC_1_12_0_0 + 98304 SDMC_1_13_0_0 + 49152 SDMC_1_14_0_0
 + 24576 SDMC_1_15_0_0 + 49152 SDMC_1_16_0_0 + 172032 SDMC_1_17_0_0
 + 196608 SDMC_1_18_0_0 + 24576 SDMC_1_19_0_0 + 122880 SDMC_1_20_0_0
 + 540672 SDMC_1_21_0_0 + 24576 SDMC_1_22_0_0 + 24576 SDMC_1_23_0_0
 + 24576 SDMC_1_24_0_0 + 516096 SDMC_1_25_0_0 + 24576 SDMC_1_26_0_0
 + 73728 SDMC_1_27_0_0 + 24576 SDMC_1_28_0_0 + 24576 SDMC_1_29_0_0
 + 49152 SDMC_1_2_0_0 + 24576 SDMC_1_3_0_0 + 417792 SDMC_1_4_0_0
 + 49152 SDMC_1_5_0_0 + 24576 SDMC_1_6_0_0 + 24576 SDMC_1_7_0_0
 + 24576 SDMC_1_8_0_0 + 49152 SDMC_1_9_0_0 + 98304 SDMC_20_21_0_0
 + 98304 SDMC_20_22_0_0 + 294912 SDMC_20_23_0_0 + 98304 SDMC_20_24_0_0
 + 393216 SDMC_20_25_0_0 + 98304 SDMC_20_26_0_0 + 196608 SDMC_20_27_0_0
 + 24576 SDMC_20_28_0_0 + 466944 SDMC_20_29_0_0 + 24576 SDMC_20_8_0_0
 + 24576 SDMC_21_22_0_0 + 73728 SDMC_21_23_0_0 + 122880 SDMC_21_24_0_0
 + 2359296 SDMC_21_25_0_0 + 122880 SDMC_21_26_0_0 + 49152 SDMC_21_27_0_0
 + 122880 SDMC_21_28_0_0 + 122880 SDMC_21_29_0_0 + 122880 SDMC_21_8_0_0
 + 122880 SDMC_22_23_0_0 + 24576 SDMC_22_24_0_0 + 24576 SDMC_22_25_0_0
 + 24576 SDMC_22_26_0_0 + 172032 SDMC_22_27_0_0 + 24576 SDMC_22_28_0_0
 + 24576 SDMC_22_29_0_0 + 49152 SDMC_23_24_0_0 + 49152 SDMC_23_25_0_0
 + 49152 SDMC_23_26_0_0 + 811008 SDMC_23_27_0_0 + 73728 SDMC_23_28_0_0
 + 73728 SDMC_23_29_0_0 + 122880 SDMC_24_25_0_0 + 24576 SDMC_24_26_0_0
 + 24576 SDMC_24_27_0_0 + 24576 SDMC_24_28_0_0 + 24576 SDMC_24_29_0_0
 + 24576 SDMC_24_8_0_0 + 466944 SDMC_25_26_0_0 + 73728 SDMC_25_27_0_0
 + 196608 SDMC_25_28_0_0 + 196608 SDMC_25_29_0_0 + 172032 SDMC_25_8_0_0
 + 24576 SDMC_26_27_0_0 + 24576 SDMC_26_28_0_0 + 24576 SDMC_26_29_0_0
 + 49152 SDMC_27_28_0_0 + 49152 SDMC_27_29_0_0 + 24576 SDMC_28_29_0_0
 + 49152 SDMC_2_10_0_0 + 49152 SDMC_2_11_0_0 + 294912 SDMC_2_12_0_0
 + 196608 SDMC_2_13_0_0 + 98304 SDMC_2_14_0_0 + 49152 SDMC_2_15_0_0
 + 98304 SDMC_2_16_0_0 + 344064 SDMC_2_17_0_0 + 393216 SDMC_2_18_0_0
 + 49152 SDMC_2_19_0_0 + 245760 SDMC_2_20_0_0 + 1130496 SDMC_2_21_0_0
 + 49152 SDMC_2_22_0_0 + 49152 SDMC_2_23_0_0 + 49152 SDMC_2_24_0_0
 + 1081344 SDMC_2_25_0_0 + 49152 SDMC_2_26_0_0 + 98304 SDMC_2_27_0_0
 + 49152 SDMC_2_28_0_0 + 49152 SDMC_2_29_0_0 + 98304 SDMC_2_3_0_0
 + 884736 SDMC_2_4_0_0 + 147456 SDMC_2_5_0_0 + 49152 SDMC_2_6_0_0
 + 98304 SDMC_2_7_0_0 + 49152 SDMC_2_8_0_0 + 98304 SDMC_2_9_0_0
 + 24576 SDMC_3_10_0_0 + 24576 SDMC_3_11_0_0 + 147456 SDMC_3_12_0_0
 + 98304 SDMC_3_13_0_0 + 49152 SDMC_3_14_0_0 + 24576 SDMC_3_15_0_0
 + 49152 SDMC_3_16_0_0 + 172032 SDMC_3_17_0_0 + 196608 SDMC_3_18_0_0
 + 24576 SDMC_3_19_0_0 + 122880 SDMC_3_20_0_0 + 565248 SDMC_3_21_0_0
 + 24576 SDMC_3_22_0_0 + 24576 SDMC_3_23_0_0 + 24576 SDMC_3_24_0_0
 + 540672 SDMC_3_25_0_0 + 24576 SDMC_3_26_0_0 + 49152 SDMC_3_27_0_0
 + 24576 SDMC_3_28_0_0 + 24576 SDMC_3_29_0_0 + 442368 SDMC_3_4_0_0
 + 73728 SDMC_3_5_0_0 + 24576 SDMC_3_6_0_0 + 49152 SDMC_3_7_0_0
 + 24576 SDMC_3_8_0_0 + 49152 SDMC_3_9_0_0 + 1130496 SDMC_4_10_0_0
 + 172032 SDMC_4_11_0_0 + 1376256 SDMC_4_12_0_0 + 786432 SDMC_4_13_0_0
 + 491520 SDMC_4_14_0_0 + 147456 SDMC_4_15_0_0 + 663552 SDMC_4_16_0_0
 + 1671168 SDMC_4_17_0_0 + 1990656 SDMC_4_18_0_0 + 344064 SDMC_4_19_0_0
 + 1105920 SDMC_4_20_0_0 + 491520 SDMC_4_21_0_0 + 319488 SDMC_4_22_0_0
 + 983040 SDMC_4_23_0_0 + 368640 SDMC_4_24_0_0 + 1572864 SDMC_4_25_0_0
 + 270336 SDMC_4_26_0_0 + 663552 SDMC_4_27_0_0 + 466944 SDMC_4_28_0_0
 + 344064 SDMC_4_29_0_0 + 344064 SDMC_4_5_0_0 + 98304 SDMC_4_6_0_0
 + 221184 SDMC_4_7_0_0 + 294912 SDMC_4_8_0_0 + 417792 SDMC_4_9_0_0
 + 98304 SDMC_5_10_0_0 + 98304 SDMC_5_11_0_0 + 196608 SDMC_5_12_0_0
 + 393216 SDMC_5_13_0_0 + 196608 SDMC_5_14_0_0 + 98304 SDMC_5_15_0_0
 + 589824 SDMC_5_16_0_0 + 294912 SDMC_5_17_0_0 + 393216 SDMC_5_18_0_0
 + 98304 SDMC_5_19_0_0 + 98304 SDMC_5_20_0_0 + 196608 SDMC_5_21_0_0
 + 98304 SDMC_5_22_0_0 + 196608 SDMC_5_23_0_0 + 98304 SDMC_5_24_0_0
 + 393216 SDMC_5_25_0_0 + 98304 SDMC_5_26_0_0 + 491520 SDMC_5_27_0_0
 + 98304 SDMC_5_28_0_0 + 98304 SDMC_5_29_0_0 + 147456 SDMC_5_6_0_0
 + 319488 SDMC_5_7_0_0 + 49152 SDMC_5_8_0_0 + 73728 SDMC_5_9_0_0
 + 24576 SDMC_6_10_0_0 + 24576 SDMC_6_11_0_0 + 49152 SDMC_6_12_0_0
 + 98304 SDMC_6_13_0_0 + 49152 SDMC_6_14_0_0 + 24576 SDMC_6_15_0_0
 + 147456 SDMC_6_16_0_0 + 73728 SDMC_6_17_0_0 + 98304 SDMC_6_18_0_0
 + 24576 SDMC_6_19_0_0 + 24576 SDMC_6_20_0_0 + 24576 SDMC_6_21_0_0
 + 24576 SDMC_6_22_0_0 + 49152 SDMC_6_23_0_0 + 24576 SDMC_6_24_0_0
 + 73728 SDMC_6_25_0_0 + 24576 SDMC_6_26_0_0 + 122880 SDMC_6_27_0_0
 + 24576 SDMC_6_28_0_0 + 24576 SDMC_6_29_0_0 + 565248 SDMC_6_7_0_0
 + 24576 SDMC_6_8_0_0 + 24576 SDMC_6_9_0_0 + 49152 SDMC_7_10_0_0
 + 49152 SDMC_7_11_0_0 + 98304 SDMC_7_12_0_0 + 196608 SDMC_7_13_0_0
 + 98304 SDMC_7_14_0_0 + 49152 SDMC_7_15_0_0 + 294912 SDMC_7_16_0_0
 + 147456 SDMC_7_17_0_0 + 196608 SDMC_7_18_0_0 + 49152 SDMC_7_19_0_0
 + 49152 SDMC_7_20_0_0 + 49152 SDMC_7_21_0_0 + 49152 SDMC_7_22_0_0
 + 98304 SDMC_7_23_0_0 + 49152 SDMC_7_24_0_0 + 147456 SDMC_7_25_0_0
 + 49152 SDMC_7_26_0_0 + 245760 SDMC_7_27_0_0 + 49152 SDMC_7_28_0_0
 + 49152 SDMC_7_29_0_0 + 49152 SDMC_7_8_0_0 + 49152 SDMC_7_9_0_0
 + 98304 SDMC_8_0_0_0 + 24576 SDMC_8_10_0_0 + 24576 SDMC_8_11_0_0
 + 49152 SDMC_8_12_0_0 + 98304 SDMC_8_13_0_0 + 49152 SDMC_8_14_0_0
 + 24576 SDMC_8_15_0_0 + 147456 SDMC_8_16_0_0 + 73728 SDMC_8_17_0_0
 + 98304 SDMC_8_18_0_0 + 24576 SDMC_8_19_0_0 + 24576 SDMC_8_1_0_0
 + 24576 SDMC_8_20_0_0 + 122880 SDMC_8_21_0_0 + 24576 SDMC_8_22_0_0
 + 49152 SDMC_8_23_0_0 + 24576 SDMC_8_24_0_0 + 172032 SDMC_8_25_0_0
 + 24576 SDMC_8_26_0_0 + 122880 SDMC_8_27_0_0 + 24576 SDMC_8_28_0_0
 + 24576 SDMC_8_29_0_0 + 49152 SDMC_8_2_0_0 + 24576 SDMC_8_3_0_0
 + 319488 SDMC_8_4_0_0 + 24576 SDMC_8_9_0_0 + 98304 SDMC_9_10_0_0
 + 24576 SDMC_9_11_0_0 + 49152 SDMC_9_12_0_0 + 98304 SDMC_9_13_0_0
 + 49152 SDMC_9_14_0_0 + 24576 SDMC_9_15_0_0 + 147456 SDMC_9_16_0_0
 + 73728 SDMC_9_17_0_0 + 98304 SDMC_9_18_0_0 + 24576 SDMC_9_19_0_0
 + 24576 SDMC_9_20_0_0 + 24576 SDMC_9_21_0_0 + 24576 SDMC_9_22_0_0
 + 73728 SDMC_9_23_0_0 + 24576 SDMC_9_24_0_0 + 98304 SDMC_9_25_0_0
 + 24576 SDMC_9_26_0_0 + 49152 SDMC_9_27_0_0 + 24576 SDMC_9_28_0_0
 + 24576 SDMC_9_29_0_0
Subject To
Max_Probes_Router0: SDMC_0_10_0_0 + SDMC_0_11_0_0 + SDMC_0_12_0_0
 + SDMC_0_13_0_0 + SDMC_0_14_0_0 + SDMC_0_15_0_0 + SDMC_0_16_0_0
 + SDMC_0_17_0_0 + SDMC_0_18_0_0 + SDMC_0_19_0_0 + SDMC_0_1_0_0
 + SDMC_0_20_0_0 + SDMC_0_21_0_0 + SDMC_0_22_0_0 + SDMC_0_23_0_0
 + SDMC_0_24_0_0 + SDMC_0_25_0_0 + SDMC_0_26_0_0 + SDMC_0_27_0_0
 + SDMC_0_28_0_0 + SDMC_0_29_0_0 + SDMC_0_2_0_0 + SDMC_0_30_0_0 + SDMC_0_3_0_0
 + SDMC_0_4_0_0 + SDMC_0_5_0_0 + SDMC_0_6_0_0 + SDMC_0_7_0_0 + SDMC_0_8_0_0
 + SDMC_0_9_0_0 <= 4
Max_Probes_Router1: SDMC_1_0_0_0 + SDMC_1_10_0_0 + SDMC_1_11_0_0
 + SDMC_1_12_0_0 + SDMC_1_13_0_0 + SDMC_1_14_0_0 + SDMC_1_15_0_0
 + SDMC_1_16_0_0 + SDMC_1_17_0_0 + SDMC_1_18_0_0 + SDMC_1_19_0_0
 + SDMC_1_20_0_0 + SDMC_1_21_0_0 + SDMC_1_22_0_0 + SDMC_1_23_0_0
 + SDMC_1_24_0_0 + SDMC_1_25_0_0 + SDMC_1_26_0_0 + SDMC_1_27_0_0
 + SDMC_1_28_0_0 + SDMC_1_29_0_0 + SDMC_1_2_0_0 + SDMC_1_30_0_0 + SDMC_1_3_0_0
 + SDMC_1_4_0_0 + SDMC_1_5_0_0 + SDMC_1_6_0_0 + SDMC_1_7_0_0 + SDMC_1_8_0_0
 + SDMC_1_9_0_0 <= 2
Max_Probes_Router10: SDMC_10_0_0_0 + SDMC_10_11_0_0 + SDMC_10_12_0_0
 + SDMC_10_13_0_0 + SDMC_10_14_0_0 + SDMC_10_15_0_0 + SDMC_10_16_0_0
 + SDMC_10_17_0_0 + SDMC_10_18_0_0 + SDMC_10_19_0_0 + SDMC_10_1_0_0
 + SDMC_10_20_0_0 + SDMC_10_21_0_0 + SDMC_10_22_0_0 + SDMC_10_23_0_0
 + SDMC_10_24_0_0 + SDMC_10_25_0_0 + SDMC_10_26_0_0 + SDMC_10_27_0_0
 + SDMC_10_28_0_0 + SDMC_10_29_0_0 + SDMC_10_2_0_0 + SDMC_10_30_0_0
 + SDMC_10_3_0_0 + SDMC_10_4_0_0 + SDMC_10_5_0_0 + SDMC_10_6_0_0
 + SDMC_10_7_0_0 + SDMC_10_8_0_0 + SDMC_10_9_0_0 <= 3
Max_Probes_Router11: SDMC_11_0_0_0 + SDMC_11_10_0_0 + SDMC_11_12_0_0
 + SDMC_11_13_0_0 + SDMC_11_14_0_0 + SDMC_11_15_0_0 + SDMC_11_16_0_0
 + SDMC_11_17_0_0 + SDMC_11_18_0_0 + SDMC_11_19_0_0 + SDMC_11_1_0_0
 + SDMC_11_20_0_0 + SDMC_11_21_0_0 + SDMC_11_22_0_0 + SDMC_11_23_0_0
 + SDMC_11_24_0_0 + SDMC_11_25_0_0 + SDMC_11_26_0_0 + SDMC_11_27_0_0
 + SDMC_11_28_0_0 + SDMC_11_29_0_0 + SDMC_11_2_0_0 + SDMC_11_30_0_0
 + SDMC_11_3_0_0 + SDMC_11_4_0_0 + SDMC_11_5_0_0 + SDMC_11_6_0_0
 + SDMC_11_7_0_0 + SDMC_11_8_0_0 + SDMC_11_9_0_0 <= 4
Max_Probes_Router12: SDMC_12_0_0_0 + SDMC_12_10_0_0 + SDMC_12_11_0_0
 + SDMC_12_13_0_0 + SDMC_12_14_0_0 + SDMC_12_15_0_0 + SDMC_12_16_0_0
 + SDMC_12_17_0_0 + SDMC_12_18_0_0 + SDMC_12_19_0_0 + SDMC_12_1_0_0
 + SDMC_12_20_0_0 + SDMC_12_21_0_0 + SDMC_12_22_0_0 + SDMC_12_23_0_0
 + SDMC_12_24_0_0 + SDMC_12_25_0_0 + SDMC_12_26_0_0 + SDMC_12_27_0_0
 + SDMC_12_28_0_0 + SDMC_12_29_0_0 + SDMC_12_2_0_0 + SDMC_12_30_0_0
 + SDMC_12_3_0_0 + SDMC_12_4_0_0 + SDMC_12_5_0_0 + SDMC_12_6_0_0
 + SDMC_12_7_0_0 + SDMC_12_8_0_0 + SDMC_12_9_0_0 <= 3
Max_Probes_Router13: SDMC_13_0_0_0 + SDMC_13_10_0_0 + SDMC_13_11_0_0
 + SDMC_13_12_0_0 + SDMC_13_14_0_0 + SDMC_13_15_0_0 + SDMC_13_16_0_0
 + SDMC_13_17_0_0 + SDMC_13_18_0_0 + SDMC_13_19_0_0 + SDMC_13_1_0_0
 + SDMC_13_20_0_0 + SDMC_13_21_0_0 + SDMC_13_22_0_0 + SDMC_13_23_0_0
 + SDMC_13_24_0_0 + SDMC_13_25_0_0 + SDMC_13_26_0_0 + SDMC_13_27_0_0
 + SDMC_13_28_0_0 + SDMC_13_29_0_0 + SDMC_13_2_0_0 + SDMC_13_30_0_0
 + SDMC_13_3_0_0 + SDMC_13_4_0_0 + SDMC_13_5_0_0 + SDMC_13_6_0_0
 + SDMC_13_7_0_0 + SDMC_13_8_0_0 + SDMC_13_9_0_0 <= 4
Max_Probes_Router14: SDMC_14_0_0_0 + SDMC_14_10_0_0 + SDMC_14_11_0_0
 + SDMC_14_12_0_0 + SDMC_14_13_0_0 + SDMC_14_15_0_0 + SDMC_14_16_0_0
 + SDMC_14_17_0_0 + SDMC_14_18_0_0 + SDMC_14_19_0_0 + SDMC_14_1_0_0
 + SDMC_14_20_0_0 + SDMC_14_21_0_0 + SDMC_14_22_0_0 + SDMC_14_23_0_0
 + SDMC_14_24_0_0 + SDMC_14_25_0_0 + SDMC_14_26_0_0 + SDMC_14_27_0_0
 + SDMC_14_28_0_0 + SDMC_14_29_0_0 + SDMC_14_2_0_0 + SDMC_14_30_0_0
 + SDMC_14_3_0_0 + SDMC_14_4_0_0 + SDMC_14_5_0_0 + SDMC_14_6_0_0
 + SDMC_14_7_0_0 + SDMC_14_8_0_0 + SDMC_14_9_0_0 <= 3
Max_Probes_Router15: SDMC_15_0_0_0 + SDMC_15_10_0_0 + SDMC_15_11_0_0
 + SDMC_15_12_0_0 + SDMC_15_13_0_0 + SDMC_15_14_0_0 + SDMC_15_16_0_0
 + SDMC_15_17_0_0 + SDMC_15_18_0_0 + SDMC_15_19_0_0 + SDMC_15_1_0_0
 + SDMC_15_20_0_0 + SDMC_15_21_0_0 + SDMC_15_22_0_0 + SDMC_15_23_0_0
 + SDMC_15_24_0_0 + SDMC_15_25_0_0 + SDMC_15_26_0_0 + SDMC_15_27_0_0
 + SDMC_15_28_0_0 + SDMC_15_29_0_0 + SDMC_15_2_0_0 + SDMC_15_30_0_0
 + SDMC_15_3_0_0 + SDMC_15_4_0_0 + SDMC_15_5_0_0 + SDMC_15_6_0_0
 + SDMC_15_7_0_0 + SDMC_15_8_0_0 + SDMC_15_9_0_0 <= 2
Max_Probes_Router16: SDMC_16_0_0_0 + SDMC_16_10_0_0 + SDMC_16_11_0_0
 + SDMC_16_12_0_0 + SDMC_16_13_0_0 + SDMC_16_14_0_0 + SDMC_16_15_0_0
 + SDMC_16_17_0_0 + SDMC_16_18_0_0 + SDMC_16_19_0_0 + SDMC_16_1_0_0
 + SDMC_16_20_0_0 + SDMC_16_21_0_0 + SDMC_16_22_0_0 + SDMC_16_23_0_0
 + SDMC_16_24_0_0 + SDMC_16_25_0_0 + SDMC_16_26_0_0 + SDMC_16_27_0_0
 + SDMC_16_28_0_0 + SDMC_16_29_0_0 + SDMC_16_2_0_0 + SDMC_16_30_0_0
 + SDMC_16_3_0_0 + SDMC_16_4_0_0 + SDMC_16_5_0_0 + SDMC_16_6_0_0
 + SDMC_16_7_0_0 + SDMC_16_8_0_0 + SDMC_16_9_0_0 <= 7
Max_Probes_Router17: SDMC_17_0_0_0 + SDMC_17_10_0_0 + SDMC_17_11_0_0
 + SDMC_17_12_0_0 + SDMC_17_13_0_0 + SDMC_17_14_0_0 + SDMC_17_15_0_0
 + SDMC_17_16_0_0 + SDMC_17_18_0_0 + SDMC_17_19_0_0 + SDMC_17_1_0_0
 + SDMC_17_20_0_0 + SDMC_17_21_0_0 + SDMC_17_22_0_0 + SDMC_17_23_0_0
 + SDMC_17_24_0_0 + SDMC_17_25_0_0 + SDMC_17_26_0_0 + SDMC_17_27_0_0
 + SDMC_17_28_0_0 + SDMC_17_29_0_0 + SDMC_17_2_0_0 + SDMC_17_30_0_0
 + SDMC_17_3_0_0 + SDMC_17_4_0_0 + SDMC_17_5_0_0 + SDMC_17_6_0_0
 + SDMC_17_7_0_0 + SDMC_17_8_0_0 + SDMC_17_9_0_0 <= 2
Max_Probes_Router18: SDMC_18_0_0_0 + SDMC_18_10_0_0 + SDMC_18_11_0_0
 + SDMC_18_12_0_0 + SDMC_18_13_0_0 + SDMC_18_14_0_0 + SDMC_18_15_0_0
 + SDMC_18_16_0_0 + SDMC_18_17_0_0 + SDMC_18_19_0_0 + SDMC_18_1_0_0
 + SDMC_18_20_0_0 + SDMC_18_21_0_0 + SDMC_18_22_0_0 + SDMC_18_23_0_0
 + SDMC_18_24_0_0 + SDMC_18_25_0_0 + SDMC_18_26_0_0 + SDMC_18_27_0_0
 + SDMC_18_28_0_0 + SDMC_18_29_0_0 + SDMC_18_2_0_0 + SDMC_18_30_0_0
 + SDMC_18_3_0_0 + SDMC_18_4_0_0 + SDMC_18_5_0_0 + SDMC_18_6_0_0
 + SDMC_18_7_0_0 + SDMC_18_8_0_0 + SDMC_18_9_0_0 <= 2
Max_Probes_Router19: SDMC_19_0_0_0 + SDMC_19_10_0_0 + SDMC_19_11_0_0
 + SDMC_19_12_0_0 + SDMC_19_13_0_0 + SDMC_19_14_0_0 + SDMC_19_15_0_0
 + SDMC_19_16_0_0 + SDMC_19_17_0_0 + SDMC_19_18_0_0 + SDMC_19_1_0_0
 + SDMC_19_20_0_0 + SDMC_19_21_0_0 + SDMC_19_22_0_0 + SDMC_19_23_0_0
 + SDMC_19_24_0_0 + SDMC_19_25_0_0 + SDMC_19_26_0_0 + SDMC_19_27_0_0
 + SDMC_19_28_0_0 + SDMC_19_29_0_0 + SDMC_19_2_0_0 + SDMC_19_30_0_0
 + SDMC_19_3_0_0 + SDMC_19_4_0_0 + SDMC_19_5_0_0 + SDMC_19_6_0_0
 + SDMC_19_7_0_0 + SDMC_19_8_0_0 + SDMC_19_9_0_0 <= 3
Max_Probes_Router2: SDMC_2_0_0_0 + SDMC_2_10_0_0 + SDMC_2_11_0_0
 + SDMC_2_12_0_0 + SDMC_2_13_0_0 + SDMC_2_14_0_0 + SDMC_2_15_0_0
 + SDMC_2_16_0_0 + SDMC_2_17_0_0 + SDMC_2_18_0_0 + SDMC_2_19_0_0
 + SDMC_2_1_0_0 + SDMC_2_20_0_0 + SDMC_2_21_0_0 + SDMC_2_22_0_0
 + SDMC_2_23_0_0 + SDMC_2_24_0_0 + SDMC_2_25_0_0 + SDMC_2_26_0_0
 + SDMC_2_27_0_0 + SDMC_2_28_0_0 + SDMC_2_29_0_0 + SDMC_2_30_0_0
 + SDMC_2_3_0_0 + SDMC_2_4_0_0 + SDMC_2_5_0_0 + SDMC_2_6_0_0 + SDMC_2_7_0_0
 + SDMC_2_8_0_0 + SDMC_2_9_0_0 <= 3
Max_Probes_Router20: SDMC_20_0_0_0 + SDMC_20_10_0_0 + SDMC_20_11_0_0
 + SDMC_20_12_0_0 + SDMC_20_13_0_0 + SDMC_20_14_0_0 + SDMC_20_15_0_0
 + SDMC_20_16_0_0 + SDMC_20_17_0_0 + SDMC_20_18_0_0 + SDMC_20_19_0_0
 + SDMC_20_1_0_0 + SDMC_20_21_0_0 + SDMC_20_22_0_0 + SDMC_20_23_0_0
 + SDMC_20_24_0_0 + SDMC_20_25_0_0 + SDMC_20_26_0_0 + SDMC_20_27_0_0
 + SDMC_20_28_0_0 + SDMC_20_29_0_0 + SDMC_20_2_0_0 + SDMC_20_30_0_0
 + SDMC_20_3_0_0 + SDMC_20_4_0_0 + SDMC_20_5_0_0 + SDMC_20_6_0_0
 + SDMC_20_7_0_0 + SDMC_20_8_0_0 + SDMC_20_9_0_0 <= 2
Max_Probes_Router21: SDMC_21_0_0_0 + SDMC_21_10_0_0 + SDMC_21_11_0_0
 + SDMC_21_12_0_0 + SDMC_21_13_0_0 + SDMC_21_14_0_0 + SDMC_21_15_0_0
 + SDMC_21_16_0_0 + SDMC_21_17_0_0 + SDMC_21_18_0_0 + SDMC_21_19_0_0
 + SDMC_21_1_0_0 + SDMC_21_20_0_0 + SDMC_21_22_0_0 + SDMC_21_23_0_0
 + SDMC_21_24_0_0 + SDMC_21_25_0_0 + SDMC_21_26_0_0 + SDMC_21_27_0_0
 + SDMC_21_28_0_0 + SDMC_21_29_0_0 + SDMC_21_2_0_0 + SDMC_21_30_0_0
 + SDMC_21_3_0_0 + SDMC_21_4_0_0 + SDMC_21_5_0_0 + SDMC_21_6_0_0
 + SDMC_21_7_0_0 + SDMC_21_8_0_0 + SDMC_21_9_0_0 <= 2
Max_Probes_Router22: SDMC_22_0_0_0 + SDMC_22_10_0_0 + SDMC_22_11_0_0
 + SDMC_22_12_0_0 + SDMC_22_13_0_0 + SDMC_22_14_0_0 + SDMC_22_15_0_0
 + SDMC_22_16_0_0 + SDMC_22_17_0_0 + SDMC_22_18_0_0 + SDMC_22_19_0_0
 + SDMC_22_1_0_0 + SDMC_22_20_0_0 + SDMC_22_21_0_0 + SDMC_22_23_0_0
 + SDMC_22_24_0_0 + SDMC_22_25_0_0 + SDMC_22_26_0_0 + SDMC_22_27_0_0
 + SDMC_22_28_0_0 + SDMC_22_29_0_0 + SDMC_22_2_0_0 + SDMC_22_30_0_0
 + SDMC_22_3_0_0 + SDMC_22_4_0_0 + SDMC_22_5_0_0 + SDMC_22_6_0_0
 + SDMC_22_7_0_0 + SDMC_22_8_0_0 + SDMC_22_9_0_0 <= 2
Max_Probes_Router23: SDMC_23_0_0_0 + SDMC_23_10_0_0 + SDMC_23_11_0_0
 + SDMC_23_12_0_0 + SDMC_23_13_0_0 + SDMC_23_14_0_0 + SDMC_23_15_0_0
 + SDMC_23_16_0_0 + SDMC_23_17_0_0 + SDMC_23_18_0_0 + SDMC_23_19_0_0
 + SDMC_23_1_0_0 + SDMC_23_20_0_0 + SDMC_23_21_0_0 + SDMC_23_22_0_0
 + SDMC_23_24_0_0 + SDMC_23_25_0_0 + SDMC_23_26_0_0 + SDMC_23_27_0_0
 + SDMC_23_28_0_0 + SDMC_23_29_0_0 + SDMC_23_2_0_0 + SDMC_23_30_0_0
 + SDMC_23_3_0_0 + SDMC_23_4_0_0 + SDMC_23_5_0_0 + SDMC_23_6_0_0
 + SDMC_23_7_0_0 + SDMC_23_8_0_0 + SDMC_23_9_0_0 <= 2
Max_Probes_Router24: SDMC_24_0_0_0 + SDMC_24_10_0_0 + SDMC_24_11_0_0
 + SDMC_24_12_0_0 + SDMC_24_13_0_0 + SDMC_24_14_0_0 + SDMC_24_15_0_0
 + SDMC_24_16_0_0 + SDMC_24_17_0_0 + SDMC_24_18_0_0 + SDMC_24_19_0_0
 + SDMC_24_1_0_0 + SDMC_24_20_0_0 + SDMC_24_21_0_0 + SDMC_24_22_0_0
 + SDMC_24_23_0_0 + SDMC_24_25_0_0 + SDMC_24_26_0_0 + SDMC_24_27_0_0
 + SDMC_24_28_0_0 + SDMC_24_29_0_0 + SDMC_24_2_0_0 + SDMC_24_30_0_0
 + SDMC_24_3_0_0 + SDMC_24_4_0_0 + SDMC_24_5_0_0 + SDMC_24_6_0_0
 + SDMC_24_7_0_0 + SDMC_24_8_0_0 + SDMC_24_9_0_0 <= 2
Max_Probes_Router25: SDMC_25_0_0_0 + SDMC_25_10_0_0 + SDMC_25_11_0_0
 + SDMC_25_12_0_0 + SDMC_25_13_0_0 + SDMC_25_14_0_0 + SDMC_25_15_0_0
 + SDMC_25_16_0_0 + SDMC_25_17_0_0 + SDMC_25_18_0_0 + SDMC_25_19_0_0
 + SDMC_25_1_0_0 + SDMC_25_20_0_0 + SDMC_25_21_0_0 + SDMC_25_22_0_0
 + SDMC_25_23_0_0 + SDMC_25_24_0_0 + SDMC_25_26_0_0 + SDMC_25_27_0_0
 + SDMC_25_28_0_0 + SDMC_25_29_0_0 + SDMC_25_2_0_0 + SDMC_25_30_0_0
 + SDMC_25_3_0_0 + SDMC_25_4_0_0 + SDMC_25_5_0_0 + SDMC_25_6_0_0
 + SDMC_25_7_0_0 + SDMC_25_8_0_0 + SDMC_25_9_0_0 <= 5
Max_Probes_Router26: SDMC_26_0_0_0 + SDMC_26_10_0_0 + SDMC_26_11_0_0
 + SDMC_26_12_0_0 + SDMC_26_13_0_0 + SDMC_26_14_0_0 + SDMC_26_15_0_0
 + SDMC_26_16_0_0 + SDMC_26_17_0_0 + SDMC_26_18_0_0 + SDMC_26_19_0_0
 + SDMC_26_1_0_0 + SDMC_26_20_0_0 + SDMC_26_21_0_0 + SDMC_26_22_0_0
 + SDMC_26_23_0_0 + SDMC_26_24_0_0 + SDMC_26_25_0_0 + SDMC_26_27_0_0
 + SDMC_26_28_0_0 + SDMC_26_29_0_0 + SDMC_26_2_0_0 + SDMC_26_30_0_0
 + SDMC_26_3_0_0 + SDMC_26_4_0_0 + SDMC_26_5_0_0 + SDMC_26_6_0_0
 + SDMC_26_7_0_0 + SDMC_26_8_0_0 + SDMC_26_9_0_0 <= 2
Max_Probes_Router27: SDMC_27_0_0_0 + SDMC_27_10_0_0 + SDMC_27_11_0_0
 + SDMC_27_12_0_0 + SDMC_27_13_0_0 + SDMC_27_14_0_0 + SDMC_27_15_0_0
 + SDMC_27_16_0_0 + SDMC_27_17_0_0 + SDMC_27_18_0_0 + SDMC_27_19_0_0
 + SDMC_27_1_0_0 + SDMC_27_20_0_0 + SDMC_27_21_0_0 + SDMC_27_22_0_0
 + SDMC_27_23_0_0 + SDMC_27_24_0_0 + SDMC_27_25_0_0 + SDMC_27_26_0_0
 + SDMC_27_28_0_0 + SDMC_27_29_0_0 + SDMC_27_2_0_0 + SDMC_27_30_0_0
 + SDMC_27_3_0_0 + SDMC_27_4_0_0 + SDMC_27_5_0_0 + SDMC_27_6_0_0
 + SDMC_27_7_0_0 + SDMC_27_8_0_0 + SDMC_27_9_0_0 <= 9
Max_Probes_Router28: SDMC_28_0_0_0 + SDMC_28_10_0_0 + SDMC_28_11_0_0
 + SDMC_28_12_0_0 + SDMC_28_13_0_0 + SDMC_28_14_0_0 + SDMC_28_15_0_0
 + SDMC_28_16_0_0 + SDMC_28_17_0_0 + SDMC_28_18_0_0 + SDMC_28_19_0_0
 + SDMC_28_1_0_0 + SDMC_28_20_0_0 + SDMC_28_21_0_0 + SDMC_28_22_0_0
 + SDMC_28_23_0_0 + SDMC_28_24_0_0 + SDMC_28_25_0_0 + SDMC_28_26_0_0
 + SDMC_28_27_0_0 + SDMC_28_29_0_0 + SDMC_28_2_0_0 + SDMC_28_30_0_0
 + SDMC_28_3_0_0 + SDMC_28_4_0_0 + SDMC_28_5_0_0 + SDMC_28_6_0_0
 + SDMC_28_7_0_0 + SDMC_28_8_0_0 + SDMC_28_9_0_0 <= 1
Max_Probes_Router29: SDMC_29_0_0_0 + SDMC_29_10_0_0 + SDMC_29_11_0_0
 + SDMC_29_12_0_0 + SDMC_29_13_0_0 + SDMC_29_14_0_0 + SDMC_29_15_0_0
 + SDMC_29_16_0_0 + SDMC_29_17_0_0 + SDMC_29_18_0_0 + SDMC_29_19_0_0
 + SDMC_29_1_0_0 + SDMC_29_20_0_0 + SDMC_29_21_0_0 + SDMC_29_22_0_0
 + SDMC_29_23_0_0 + SDMC_29_24_0_0 + SDMC_29_25_0_0 + SDMC_29_26_0_0
 + SDMC_29_27_0_0 + SDMC_29_28_0_0 + SDMC_29_2_0_0 + SDMC_29_30_0_0
 + SDMC_29_3_0_0 + SDMC_29_4_0_0 + SDMC_29_5_0_0 + SDMC_29_6_0_0
 + SDMC_29_7_0_0 + SDMC_29_8_0_0 + SDMC_29_9_0_0 <= 3
Max_Probes_Router3: SDMC_3_0_0_0 + SDMC_3_10_0_0 + SDMC_3_11_0_0
 + SDMC_3_12_0_0 + SDMC_3_13_0_0 + SDMC_3_14_0_0 + SDMC_3_15_0_0
 + SDMC_3_16_0_0 + SDMC_3_17_0_0 + SDMC_3_18_0_0 + SDMC_3_19_0_0
 + SDMC_3_1_0_0 + SDMC_3_20_0_0 + SDMC_3_21_0_0 + SDMC_3_22_0_0
 + SDMC_3_23_0_0 + SDMC_3_24_0_0 + SDMC_3_25_0_0 + SDMC_3_26_0_0
 + SDMC_3_27_0_0 + SDMC_3_28_0_0 + SDMC_3_29_0_0 + SDMC_3_2_0_0
 + SDMC_3_30_0_0 + SDMC_3_4_0_0 + SDMC_3_5_0_0 + SDMC_3_6_0_0 + SDMC_3_7_0_0
 + SDMC_3_8_0_0 + SDMC_3_9_0_0 <= 1
Max_Probes_Router30: SDMC_30_0_0_0 + SDMC_30_10_0_0 + SDMC_30_11_0_0
 + SDMC_30_12_0_0 + SDMC_30_13_0_0 + SDMC_30_14_0_0 + SDMC_30_15_0_0
 + SDMC_30_16_0_0 + SDMC_30_17_0_0 + SDMC_30_18_0_0 + SDMC_30_19_0_0
 + SDMC_30_1_0_0 + SDMC_30_20_0_0 + SDMC_30_21_0_0 + SDMC_30_22_0_0
 + SDMC_30_23_0_0 + SDMC_30_24_0_0 + SDMC_30_25_0_0 + SDMC_30_26_0_0
 + SDMC_30_27_0_0 + SDMC_30_28_0_0 + SDMC_30_29_0_0 + SDMC_30_2_0_0
 + SDMC_30_3_0_0 + SDMC_30_4_0_0 + SDMC_30_5_0_0 + SDMC_30_6_0_0
 + SDMC_30_7_0_0 + SDMC_30_8_0_0 + SDMC_30_9_0_0 <= 0
Max_Probes_Router4: SDMC_4_0_0_0 + SDMC_4_10_0_0 + SDMC_4_11_0_0
 + SDMC_4_12_0_0 + SDMC_4_13_0_0 + SDMC_4_14_0_0 + SDMC_4_15_0_0
 + SDMC_4_16_0_0 + SDMC_4_17_0_0 + SDMC_4_18_0_0 + SDMC_4_19_0_0
 + SDMC_4_1_0_0 + SDMC_4_20_0_0 + SDMC_4_21_0_0 + SDMC_4_22_0_0
 + SDMC_4_23_0_0 + SDMC_4_24_0_0 + SDMC_4_25_0_0 + SDMC_4_26_0_0
 + SDMC_4_27_0_0 + SDMC_4_28_0_0 + SDMC_4_29_0_0 + SDMC_4_2_0_0
 + SDMC_4_30_0_0 + SDMC_4_3_0_0 + SDMC_4_5_0_0 + SDMC_4_6_0_0 + SDMC_4_7_0_0
 + SDMC_4_8_0_0 + SDMC_4_9_0_0 <= 9
Max_Probes_Router5: SDMC_5_0_0_0 + SDMC_5_10_0_0 + SDMC_5_11_0_0
 + SDMC_5_12_0_0 + SDMC_5_13_0_0 + SDMC_5_14_0_0 + SDMC_5_15_0_0
 + SDMC_5_16_0_0 + SDMC_5_17_0_0 + SDMC_5_18_0_0 + SDMC_5_19_0_0
 + SDMC_5_1_0_0 + SDMC_5_20_0_0 + SDMC_5_21_0_0 + SDMC_5_22_0_0
 + SDMC_5_23_0_0 + SDMC_5_24_0_0 + SDMC_5_25_0_0 + SDMC_5_26_0_0
 + SDMC_5_27_0_0 + SDMC_5_28_0_0 + SDMC_5_29_0_0 + SDMC_5_2_0_0
 + SDMC_5_30_0_0 + SDMC_5_3_0_0 + SDMC_5_4_0_0 + SDMC_5_6_0_0 + SDMC_5_7_0_0
 + SDMC_5_8_0_0 + SDMC_5_9_0_0 <= 7
Max_Probes_Router6: SDMC_6_0_0_0 + SDMC_6_10_0_0 + SDMC_6_11_0_0
 + SDMC_6_12_0_0 + SDMC_6_13_0_0 + SDMC_6_14_0_0 + SDMC_6_15_0_0
 + SDMC_6_16_0_0 + SDMC_6_17_0_0 + SDMC_6_18_0_0 + SDMC_6_19_0_0
 + SDMC_6_1_0_0 + SDMC_6_20_0_0 + SDMC_6_21_0_0 + SDMC_6_22_0_0
 + SDMC_6_23_0_0 + SDMC_6_24_0_0 + SDMC_6_25_0_0 + SDMC_6_26_0_0
 + SDMC_6_27_0_0 + SDMC_6_28_0_0 + SDMC_6_29_0_0 + SDMC_6_2_0_0
 + SDMC_6_30_0_0 + SDMC_6_3_0_0 + SDMC_6_4_0_0 + SDMC_6_5_0_0 + SDMC_6_7_0_0
 + SDMC_6_8_0_0 + SDMC_6_9_0_0 <= 2
Max_Probes_Router7: SDMC_7_0_0_0 + SDMC_7_10_0_0 + SDMC_7_11_0_0
 + SDMC_7_12_0_0 + SDMC_7_13_0_0 + SDMC_7_14_0_0 + SDMC_7_15_0_0
 + SDMC_7_16_0_0 + SDMC_7_17_0_0 + SDMC_7_18_0_0 + SDMC_7_19_0_0
 + SDMC_7_1_0_0 + SDMC_7_20_0_0 + SDMC_7_21_0_0 + SDMC_7_22_0_0
 + SDMC_7_23_0_0 + SDMC_7_24_0_0 + SDMC_7_25_0_0 + SDMC_7_26_0_0
 + SDMC_7_27_0_0 + SDMC_7_28_0_0 + SDMC_7_29_0_0 + SDMC_7_2_0_0
 + SDMC_7_30_0_0 + SDMC_7_3_0_0 + SDMC_7_4_0_0 + SDMC_7_5_0_0 + SDMC_7_6_0_0
 + SDMC_7_8_0_0 + SDMC_7_9_0_0 <= 4
Max_Probes_Router8: SDMC_8_0_0_0 + SDMC_8_10_0_0 + SDMC_8_11_0_0
 + SDMC_8_12_0_0 + SDMC_8_13_0_0 + SDMC_8_14_0_0 + SDMC_8_15_0_0
 + SDMC_8_16_0_0 + SDMC_8_17_0_0 + SDMC_8_18_0_0 + SDMC_8_19_0_0
 + SDMC_8_1_0_0 + SDMC_8_20_0_0 + SDMC_8_21_0_0 + SDMC_8_22_0_0
 + SDMC_8_23_0_0 + SDMC_8_24_0_0 + SDMC_8_25_0_0 + SDMC_8_26_0_0
 + SDMC_8_27_0_0 + SDMC_8_28_0_0 + SDMC_8_29_0_0 + SDMC_8_2_0_0
 + SDMC_8_30_0_0 + SDMC_8_3_0_0 + SDMC_8_4_0_0 + SDMC_8_5_0_0 + SDMC_8_6_0_0
 + SDMC_8_7_0_0 + SDMC_8_9_0_0 <= 3
Max_Probes_Router9: SDMC_9_0_0_0 + SDMC_9_10_0_0 + SDMC_9_11_0_0
 + SDMC_9_12_0_0 + SDMC_9_13_0_0 + SDMC_9_14_0_0 + SDMC_9_15_0_0
 + SDMC_9_16_0_0 + SDMC_9_17_0_0 + SDMC_9_18_0_0 + SDMC_9_19_0_0
 + SDMC_9_1_0_0 + SDMC_9_20_0_0 + SDMC_9_21_0_0 + SDMC_9_22_0_0
 + SDMC_9_23_0_0 + SDMC_9_24_0_0 + SDMC_9_25_0_0 + SDMC_9_26_0_0
 + SDMC_9_27_0_0 + SDMC_9_28_0_0 + SDMC_9_29_0_0 + SDMC_9_2_0_0
 + SDMC_9_30_0_0 + SDMC_9_3_0_0 + SDMC_9_4_0_0 + SDMC_9_5_0_0 + SDMC_9_6_0_0
 + SDMC_9_7_0_0 + SDMC_9_8_0_0 <= 4
Binaries
SDMC_0_10_0_0
SDMC_0_11_0_0
SDMC_0_12_0_0
SDMC_0_13_0_0
SDMC_0_14_0_0
SDMC_0_15_0_0
SDMC_0_16_0_0
SDMC_0_17_0_0
SDMC_0_18_0_0
SDMC_0_19_0_0
SDMC_0_1_0_0
SDMC_0_20_0_0
SDMC_0_21_0_0
SDMC_0_22_0_0
SDMC_0_23_0_0
SDMC_0_24_0_0
SDMC_0_25_0_0
SDMC_0_26_0_0
SDMC_0_27_0_0
SDMC_0_28_0_0
SDMC_0_29_0_0
SDMC_0_2_0_0
SDMC_0_30_0_0
SDMC_0_3_0_0
SDMC_0_4_0_0
SDMC_0_5_0_0
SDMC_0_6_0_0
SDMC_0_7_0_0
SDMC_0_8_0_0
SDMC_0_9_0_0
SDMC_10_0_0_0
SDMC_10_11_0_0
SDMC_10_12_0_0
SDMC_10_13_0_0
SDMC_10_14_0_0
SDMC_10_15_0_0
SDMC_10_16_0_0
SDMC_10_17_0_0
SDMC_10_18_0_0
SDMC_10_19_0_0
SDMC_10_1_0_0
SDMC_10_20_0_0
SDMC_10_21_0_0
SDMC_10_22_0_0
SDMC_10_23_0_0
SDMC_10_24_0_0
SDMC_10_25_0_0
SDMC_10_26_0_0
SDMC_10_27_0_0
SDMC_10_28_0_0
SDMC_10_29_0_0
SDMC_10_2_0_0
SDMC_10_30_0_0
SDMC_10_3_0_0
SDMC_10_4_0_0
SDMC_10_5_0_0
SDMC_10_6_0_0
SDMC_10_7_0_0
SDMC_10_8_0_0
SDMC_10_9_0_0
SDMC_11_0_0_0
SDMC_11_10_0_0
SDMC_11_12_0_0
SDMC_11_13_0_0
SDMC_11_14_0_0
SDMC_11_15_0_0
SDMC_11_16_0_0
SDMC_11_17_0_0
SDMC_11_18_0_0
SDMC_11_19_0_0
SDMC_11_1_0_0
SDMC_11_20_0_0
SDMC_11_21_0_0
SDMC_11_22_0_0
SDMC_11_23_0_0
SDMC_11_24_0_0
SDMC_11_25_0_0
SDMC_11_26_0_0
SDMC_11_27_0_0
SDMC_11_28_0_0
SDMC_11_29_0_0
SDMC_11_2_0_0
SDMC_11_30_0_0
SDMC_11_3_0_0
SDMC_11_4_0_0
SDMC_11_5_0_0
SDMC_11_6_0_0
SDMC_11_7_0_0
SDMC_11_8_0_0
SDMC_11_9_0_0
SDMC_12_0_0_0
SDMC_12_10_0_0
SDMC_12_11_0_0
SDMC_12_13_0_0
SDMC_12_14_0_0
SDMC_12_15_0_0
SDMC_12_16_0_0
SDMC_12_17_0_0
SDMC_12_18_0_0
SDMC_12_19_0_0
SDMC_12_1_0_0
SDMC_12_20_0_0
SDMC_12_21_0_0
SDMC_12_22_0_0
SDMC_12_23_0_0
SDMC_12_24_0_0
SDMC_12_25_0_0
SDMC_12_26_0_0
SDMC_12_27_0_0
SDMC_12_28_0_0
SDMC_12_29_0_0
SDMC_12_2_0_0
SDMC_12_30_0_0
SDMC_12_3_0_0
SDMC_12_4_0_0
SDMC_12_5_0_0
SDMC_12_6_0_0
SDMC_12_7_0_0
SDMC_12_8_0_0
SDMC_12_9_0_0
SDMC_13_0_0_0
SDMC_13_10_0_0
SDMC_13_11_0_0
SDMC_13_12_0_0
SDMC_13_14_0_0
SDMC_13_15_0_0
SDMC_13_16_0_0
SDMC_13_17_0_0
SDMC_13_18_0_0
SDMC_13_19_0_0
SDMC_13_1_0_0
SDMC_13_20_0_0
SDMC_13_21_0_0
SDMC_13_22_0_0
SDMC_13_23_0_0
SDMC_13_24_0_0
SDMC_13_25_0_0
SDMC_13_26_0_0
SDMC_13_27_0_0
SDMC_13_28_0_0
SDMC_13_29_0_0
SDMC_13_2_0_0
SDMC_13_30_0_0
SDMC_13_3_0_0
SDMC_13_4_0_0
SDMC_13_5_0_0
SDMC_13_6_0_0
SDMC_13_7_0_0
SDMC_13_8_0_0
SDMC_13_9_0_0
SDMC_14_0_0_0
SDMC_14_10_0_0
SDMC_14_11_0_0
SDMC_14_12_0_0
SDMC_14_13_0_0
SDMC_14_15_0_0
SDMC_14_16_0_0
SDMC_14_17_0_0
SDMC_14_18_0_0
SDMC_14_19_0_0
SDMC_14_1_0_0
SDMC_14_20_0_0
SDMC_14_21_0_0
SDMC_14_22_0_0
SDMC_14_23_0_0
SDMC_14_24_0_0
SDMC_14_25_0_0
SDMC_14_26_0_0
SDMC_14_27_0_0
SDMC_14_28_0_0
SDMC_14_29_0_0
SDMC_14_2_0_0
SDMC_14_30_0_0
SDMC_14_3_0_0
SDMC_14_4_0_0
SDMC_14_5_0_0
SDMC_14_6_0_0
SDMC_14_7_0_0
SDMC_14_8_0_0
SDMC_14_9_0_0
SDMC_15_0_0_0
SDMC_15_10_0_0
SDMC_15_11_0_0
SDMC_15_12_0_0
SDMC_15_13_0_0
SDMC_15_14_0_0
SDMC_15_16_0_0
SDMC_15_17_0_0
SDMC_15_18_0_0
SDMC_15_19_0_0
SDMC_15_1_0_0
SDMC_15_20_0_0
SDMC_15_21_0_0
SDMC_15_22_0_0
SDMC_15_23_0_0
SDMC_15_24_0_0
SDMC_15_25_0_0
SDMC_15_26_0_0
SDMC_15_27_0_0
SDMC_15_28_0_0
SDMC_15_29_0_0
SDMC_15_2_0_0
SDMC_15_30_0_0
SDMC_15_3_0_0
SDMC_15_4_0_0
SDMC_15_5_0_0
SDMC_15_6_0_0
SDMC_15_7_0_0
SDMC_15_8_0_0
SDMC_15_9_0_0
SDMC_16_0_0_0
SDMC_16_10_0_0
SDMC_16_11_0_0
SDMC_16_12_0_0
SDMC_16_13_0_0
SDMC_16_14_0_0
SDMC_16_15_0_0
SDMC_16_17_0_0
SDMC_16_18_0_0
SDMC_16_19_0_0
SDMC_16_1_0_0
SDMC_16_20_0_0
SDMC_16_21_0_0
SDMC_16_22_0_0
SDMC_16_23_0_0
SDMC_16_24_0_0
SDMC_16_25_0_0
SDMC_16_26_0_0
SDMC_16_27_0_0
SDMC_16_28_0_0
SDMC_16_29_0_0
SDMC_16_2_0_0
SDMC_16_30_0_0
SDMC_16_3_0_0
SDMC_16_4_0_0
SDMC_16_5_0_0
SDMC_16_6_0_0
SDMC_16_7_0_0
SDMC_16_8_0_0
SDMC_16_9_0_0
SDMC_17_0_0_0
SDMC_17_10_0_0
SDMC_17_11_0_0
SDMC_17_12_0_0
SDMC_17_13_0_0
SDMC_17_14_0_0
SDMC_17_15_0_0
SDMC_17_16_0_0
SDMC_17_18_0_0
SDMC_17_19_0_0
SDMC_17_1_0_0
SDMC_17_20_0_0
SDMC_17_21_0_0
SDMC_17_22_0_0
SDMC_17_23_0_0
SDMC_17_24_0_0
SDMC_17_25_0_0
SDMC_17_26_0_0
SDMC_17_27_0_0
SDMC_17_28_0_0
SDMC_17_29_0_0
SDMC_17_2_0_0
SDMC_17_30_0_0
SDMC_17_3_0_0
SDMC_17_4_0_0
SDMC_17_5_0_0
SDMC_17_6_0_0
SDMC_17_7_0_0
SDMC_17_8_0_0
SDMC_17_9_0_0
SDMC_18_0_0_0
SDMC_18_10_0_0
SDMC_18_11_0_0
SDMC_18_12_0_0
SDMC_18_13_0_0
SDMC_18_14_0_0
SDMC_18_15_0_0
SDMC_18_16_0_0
SDMC_18_17_0_0
SDMC_18_19_0_0
SDMC_18_1_0_0
SDMC_18_20_0_0
SDMC_18_21_0_0
SDMC_18_22_0_0
SDMC_18_23_0_0
SDMC_18_24_0_0
SDMC_18_25_0_0
SDMC_18_26_0_0
SDMC_18_27_0_0
SDMC_18_28_0_0
SDMC_18_29_0_0
SDMC_18_2_0_0
SDMC_18_30_0_0
SDMC_18_3_0_0
SDMC_18_4_0_0
SDMC_18_5_0_0
SDMC_18_6_0_0
SDMC_18_7_0_0
SDMC_18_8_0_0
SDMC_18_9_0_0
SDMC_19_0_0_0
SDMC_19_10_0_0
SDMC_19_11_0_0
SDMC_19_12_0_0
SDMC_19_13_0_0
SDMC_19_14_0_0
SDMC_19_15_0_0
SDMC_19_16_0_0
SDMC_19_17_0_0
SDMC_19_18_0_0
SDMC_19_1_0_0
SDMC_19_20_0_0
SDMC_19_21_0_0
SDMC_19_22_0_0
SDMC_19_23_0_0
SDMC_19_24_0_0
SDMC_19_25_0_0
SDMC_19_26_0_0
SDMC_19_27_0_0
SDMC_19_28_0_0
SDMC_19_29_0_0
SDMC_19_2_0_0
SDMC_19_30_0_0
SDMC_19_3_0_0
SDMC_19_4_0_0
SDMC_19_5_0_0
SDMC_19_6_0_0
SDMC_19_7_0_0
SDMC_19_8_0_0
SDMC_19_9_0_0
SDMC_1_0_0_0
SDMC_1_10_0_0
SDMC_1_11_0_0
SDMC_1_12_0_0
SDMC_1_13_0_0
SDMC_1_14_0_0
SDMC_1_15_0_0
SDMC_1_16_0_0
SDMC_1_17_0_0
SDMC_1_18_0_0
SDMC_1_19_0_0
SDMC_1_20_0_0
SDMC_1_21_0_0
SDMC_1_22_0_0
SDMC_1_23_0_0
SDMC_1_24_0_0
SDMC_1_25_0_0
SDMC_1_26_0_0
SDMC_1_27_0_0
SDMC_1_28_0_0
SDMC_1_29_0_0
SDMC_1_2_0_0
SDMC_1_30_0_0
SDMC_1_3_0_0
SDMC_1_4_0_0
SDMC_1_5_0_0
SDMC_1_6_0_0
SDMC_1_7_0_0
SDMC_1_8_0_0
SDMC_1_9_0_0
SDMC_20_0_0_0
SDMC_20_10_0_0
SDMC_20_11_0_0
SDMC_20_12_0_0
SDMC_20_13_0_0
SDMC_20_14_0_0
SDMC_20_15_0_0
SDMC_20_16_0_0
SDMC_20_17_0_0
SDMC_20_18_0_0
SDMC_20_19_0_0
SDMC_20_1_0_0
SDMC_20_21_0_0
SDMC_20_22_0_0
SDMC_20_23_0_0
SDMC_20_24_0_0
SDMC_20_25_0_0
SDMC_20_26_0_0
SDMC_20_27_0_0
SDMC_20_28_0_0
SDMC_20_29_0_0
SDMC_20_2_0_0
SDMC_20_30_0_0
SDMC_20_3_0_0
SDMC_20_4_0_0
SDMC_20_5_0_0
SDMC_20_6_0_0
SDMC_20_7_0_0
SDMC_20_8_0_0
SDMC_20_9_0_0
SDMC_21_0_0_0
SDMC_21_10_0_0
SDMC_21_11_0_0
SDMC_21_12_0_0
SDMC_21_13_0_0
SDMC_21_14_0_0
SDMC_21_15_0_0
SDMC_21_16_0_0
SDMC_21_17_0_0
SDMC_21_18_0_0
SDMC_21_19_0_0
SDMC_21_1_0_0
SDMC_21_20_0_0
SDMC_21_22_0_0
SDMC_21_23_0_0
SDMC_21_24_0_0
SDMC_21_25_0_0
SDMC_21_26_0_0
SDMC_21_27_0_0
SDMC_21_28_0_0
SDMC_21_29_0_0
SDMC_21_2_0_0
SDMC_21_30_0_0
SDMC_21_3_0_0
SDMC_21_4_0_0
SDMC_21_5_0_0
SDMC_21_6_0_0
SDMC_21_7_0_0
SDMC_21_8_0_0
SDMC_21_9_0_0
SDMC_22_0_0_0
SDMC_22_10_0_0
SDMC_22_11_0_0
SDMC_22_12_0_0
SDMC_22_13_0_0
SDMC_22_14_0_0
SDMC_22_15_0_0
SDMC_22_16_0_0
SDMC_22_17_0_0
SDMC_22_18_0_0
SDMC_22_19_0_0
SDMC_22_1_0_0
SDMC_22_20_0_0
SDMC_22_21_0_0
SDMC_22_23_0_0
SDMC_22_24_0_0
SDMC_22_25_0_0
SDMC_22_26_0_0
SDMC_22_27_0_0
SDMC_22_28_0_0
SDMC_22_29_0_0
SDMC_22_2_0_0
SDMC_22_30_0_0
SDMC_22_3_0_0
SDMC_22_4_0_0
SDMC_22_5_0_0
SDMC_22_6_0_0
SDMC_22_7_0_0
SDMC_22_8_0_0
SDMC_22_9_0_0
SDMC_23_0_0_0
SDMC_23_10_0_0
SDMC_23_11_0_0
SDMC_23_12_0_0
SDMC_23_13_0_0
SDMC_23_14_0_0
SDMC_23_15_0_0
SDMC_23_16_0_0
SDMC_23_17_0_0
SDMC_23_18_0_0
SDMC_23_19_0_0
SDMC_23_1_0_0
SDMC_23_20_0_0
SDMC_23_21_0_0
SDMC_23_22_0_0
SDMC_23_24_0_0
SDMC_23_25_0_0
SDMC_23_26_0_0
SDMC_23_27_0_0
SDMC_23_28_0_0
SDMC_23_29_0_0
SDMC_23_2_0_0
SDMC_23_30_0_0
SDMC_23_3_0_0
SDMC_23_4_0_0
SDMC_23_5_0_0
SDMC_23_6_0_0
SDMC_23_7_0_0
SDMC_23_8_0_0
SDMC_23_9_0_0
SDMC_24_0_0_0
SDMC_24_10_0_0
SDMC_24_11_0_0
SDMC_24_12_0_0
SDMC_24_13_0_0
SDMC_24_14_0_0
SDMC_24_15_0_0
SDMC_24_16_0_0
SDMC_24_17_0_0
SDMC_24_18_0_0
SDMC_24_19_0_0
SDMC_24_1_0_0
SDMC_24_20_0_0
SDMC_24_21_0_0
SDMC_24_22_0_0
SDMC_24_23_0_0
SDMC_24_25_0_0
SDMC_24_26_0_0
SDMC_24_27_0_0
SDMC_24_28_0_0
SDMC_24_29_0_0
SDMC_24_2_0_0
SDMC_24_30_0_0
SDMC_24_3_0_0
SDMC_24_4_0_0
SDMC_24_5_0_0
SDMC_24_6_0_0
SDMC_24_7_0_0
SDMC_24_8_0_0
SDMC_24_9_0_0
SDMC_25_0_0_0
SDMC_25_10_0_0
SDMC_25_11_0_0
SDMC_25_12_0_0
SDMC_25_13_0_0
SDMC_25_14_0_0
SDMC_25_15_0_0
SDMC_25_16_0_0
SDMC_25_17_0_0
SDMC_25_18_0_0
SDMC_25_19_0_0
SDMC_25_1_0_0
SDMC_25_20_0_0
SDMC_25_21_0_0
SDMC_25_22_0_0
SDMC_25_23_0_0
SDMC_25_24_0_0
SDMC_25_26_0_0
SDMC_25_27_0_0
SDMC_25_28_0_0
SDMC_25_29_0_0
SDMC_25_2_0_0
SDMC_25_30_0_0
SDMC_25_3_0_0
SDMC_25_4_0_0
SDMC_25_5_0_0
SDMC_25_6_0_0
SDMC_25_7_0_0
SDMC_25_8_0_0
SDMC_25_9_0_0
SDMC_26_0_0_0
SDMC_26_10_0_0
SDMC_26_11_0_0
SDMC_26_12_0_0
SDMC_26_13_0_0
SDMC_26_14_0_0
SDMC_26_15_0_0
SDMC_26_16_0_0
SDMC_26_17_0_0
SDMC_26_18_0_0
SDMC_26_19_0_0
SDMC_26_1_0_0
SDMC_26_20_0_0
SDMC_26_21_0_0
SDMC_26_22_0_0
SDMC_26_23_0_0
SDMC_26_24_0_0
SDMC_26_25_0_0
SDMC_26_27_0_0
SDMC_26_28_0_0
SDMC_26_29_0_0
SDMC_26_2_0_0
SDMC_26_30_0_0
SDMC_26_3_0_0
SDMC_26_4_0_0
SDMC_26_5_0_0
SDMC_26_6_0_0
SDMC_26_7_0_0
SDMC_26_8_0_0
SDMC_26_9_0_0
SDMC_27_0_0_0
SDMC_27_10_0_0
SDMC_27_11_0_0
SDMC_27_12_0_0
SDMC_27_13_0_0
SDMC_27_14_0_0
SDMC_27_15_0_0
SDMC_27_16_0_0
SDMC_27_17_0_0
SDMC_27_18_0_0
SDMC_27_19_0_0
SDMC_27_1_0_0
SDMC_27_20_0_0
SDMC_27_21_0_0
SDMC_27_22_0_0
SDMC_27_23_0_0
SDMC_27_24_0_0
SDMC_27_25_0_0
SDMC_27_26_0_0
SDMC_27_28_0_0
SDMC_27_29_0_0
SDMC_27_2_0_0
SDMC_27_30_0_0
SDMC_27_3_0_0
SDMC_27_4_0_0
SDMC_27_5_0_0
SDMC_27_6_0_0
SDMC_27_7_0_0
SDMC_27_8_0_0
SDMC_27_9_0_0
SDMC_28_0_0_0
SDMC_28_10_0_0
SDMC_28_11_0_0
SDMC_28_12_0_0
SDMC_28_13_0_0
SDMC_28_14_0_0
SDMC_28_15_0_0
SDMC_28_16_0_0
SDMC_28_17_0_0
SDMC_28_18_0_0
SDMC_28_19_0_0
SDMC_28_1_0_0
SDMC_28_20_0_0
SDMC_28_21_0_0
SDMC_28_22_0_0
SDMC_28_23_0_0
SDMC_28_24_0_0
SDMC_28_25_0_0
SDMC_28_26_0_0
SDMC_28_27_0_0
SDMC_28_29_0_0
SDMC_28_2_0_0
SDMC_28_30_0_0
SDMC_28_3_0_0
SDMC_28_4_0_0
SDMC_28_5_0_0
SDMC_28_6_0_0
SDMC_28_7_0_0
SDMC_28_8_0_0
SDMC_28_9_0_0
SDMC_29_0_0_0
SDMC_29_10_0_0
SDMC_29_11_0_0
SDMC_29_12_0_0
SDMC_29_13_0_0
SDMC_29_14_0_0
SDMC_29_15_0_0
SDMC_29_16_0_0
SDMC_29_17_0_0
SDMC_29_18_0_0
SDMC_29_19_0_0
SDMC_29_1_0_0
SDMC_29_20_0_0
SDMC_29_21_0_0
SDMC_29_22_0_0
SDMC_29_23_0_0
SDMC_29_24_0_0
SDMC_29_25_0_0
SDMC_29_26_0_0
SDMC_29_27_0_0
SDMC_29_28_0_0
SDMC_29_2_0_0
SDMC_29_30_0_0
SDMC_29_3_0_0
SDMC_29_4_0_0
SDMC_29_5_0_0
SDMC_29_6_0_0
SDMC_29_7_0_0
SDMC_29_8_0_0
SDMC_29_9_0_0
SDMC_2_0_0_0
SDMC_2_10_0_0
SDMC_2_11_0_0
SDMC_2_12_0_0
SDMC_2_13_0_0
SDMC_2_14_0_0
SDMC_2_15_0_0
SDMC_2_16_0_0
SDMC_2_17_0_0
SDMC_2_18_0_0
SDMC_2_19_0_0
SDMC_2_1_0_0
SDMC_2_20_0_0
SDMC_2_21_0_0
SDMC_2_22_0_0
SDMC_2_23_0_0
SDMC_2_24_0_0
SDMC_2_25_0_0
SDMC_2_26_0_0
SDMC_2_27_0_0
SDMC_2_28_0_0
SDMC_2_29_0_0
SDMC_2_30_0_0
SDMC_2_3_0_0
SDMC_2_4_0_0
SDMC_2_5_0_0
SDMC_2_6_0_0
SDMC_2_7_0_0
SDMC_2_8_0_0
SDMC_2_9_0_0
SDMC_30_0_0_0
SDMC_30_10_0_0
SDMC_30_11_0_0
SDMC_30_12_0_0
SDMC_30_13_0_0
SDMC_30_14_0_0
SDMC_30_15_0_0
SDMC_30_16_0_0
SDMC_30_17_0_0
SDMC_30_18_0_0
SDMC_30_19_0_0
SDMC_30_1_0_0
SDMC_30_20_0_0
SDMC_30_21_0_0
SDMC_30_22_0_0
SDMC_30_23_0_0
SDMC_30_24_0_0
SDMC_30_25_0_0
SDMC_30_26_0_0
SDMC_30_27_0_0
SDMC_30_28_0_0
SDMC_30_29_0_0
SDMC_30_2_0_0
SDMC_30_3_0_0
SDMC_30_4_0_0
SDMC_30_5_0_0
SDMC_30_6_0_0
SDMC_30_7_0_0
SDMC_30_8_0_0
SDMC_30_9_0_0
SDMC_3_0_0_0
SDMC_3_10_0_0
SDMC_3_11_0_0
SDMC_3_12_0_0
SDMC_3_13_0_0
SDMC_3_14_0_0
SDMC_3_15_0_0
SDMC_3_16_0_0
SDMC_3_17_0_0
SDMC_3_18_0_0
SDMC_3_19_0_0
SDMC_3_1_0_0
SDMC_3_20_0_0
SDMC_3_21_0_0
SDMC_3_22_0_0
SDMC_3_23_0_0
SDMC_3_24_0_0
SDMC_3_25_0_0
SDMC_3_26_0_0
SDMC_3_27_0_0
SDMC_3_28_0_0
SDMC_3_29_0_0
SDMC_3_2_0_0
SDMC_3_30_0_0
SDMC_3_4_0_0
SDMC_3_5_0_0
SDMC_3_6_0_0
SDMC_3_7_0_0
SDMC_3_8_0_0
SDMC_3_9_0_0
SDMC_4_0_0_0
SDMC_4_10_0_0
SDMC_4_11_0_0
SDMC_4_12_0_0
SDMC_4_13_0_0
SDMC_4_14_0_0
SDMC_4_15_0_0
SDMC_4_16_0_0
SDMC_4_17_0_0
SDMC_4_18_0_0
SDMC_4_19_0_0
SDMC_4_1_0_0
SDMC_4_20_0_0
SDMC_4_21_0_0
SDMC_4_22_0_0
SDMC_4_23_0_0
SDMC_4_24_0_0
SDMC_4_25_0_0
SDMC_4_26_0_0
SDMC_4_27_0_0
SDMC_4_28_0_0
SDMC_4_29_0_0
SDMC_4_2_0_0
SDMC_4_30_0_0
SDMC_4_3_0_0
SDMC_4_5_0_0
SDMC_4_6_0_0
SDMC_4_7_0_0
SDMC_4_8_0_0
SDMC_4_9_0_0
SDMC_5_0_0_0
SDMC_5_10_0_0
SDMC_5_11_0_0
SDMC_5_12_0_0
SDMC_5_13_0_0
SDMC_5_14_0_0
SDMC_5_15_0_0
SDMC_5_16_0_0
SDMC_5_17_0_0
SDMC_5_18_0_0
SDMC_5_19_0_0
SDMC_5_1_0_0
SDMC_5_20_0_0
SDMC_5_21_0_0
SDMC_5_22_0_0
SDMC_5_23_0_0
SDMC_5_24_0_0
SDMC_5_25_0_0
SDMC_5_26_0_0
SDMC_5_27_0_0
SDMC_5_28_0_0
SDMC_5_29_0_0
SDMC_5_2_0_0
SDMC_5_30_0_0
SDMC_5_3_0_0
SDMC_5_4_0_0
SDMC_5_6_0_0
SDMC_5_7_0_0
SDMC_5_8_0_0
SDMC_5_9_0_0
SDMC_6_0_0_0
SDMC_6_10_0_0
SDMC_6_11_0_0
SDMC_6_12_0_0
SDMC_6_13_0_0
SDMC_6_14_0_0
SDMC_6_15_0_0
SDMC_6_16_0_0
SDMC_6_17_0_0
SDMC_6_18_0_0
SDMC_6_19_0_0
SDMC_6_1_0_0
SDMC_6_20_0_0
SDMC_6_21_0_0
SDMC_6_22_0_0
SDMC_6_23_0_0
SDMC_6_24_0_0
SDMC_6_25_0_0
SDMC_6_26_0_0
SDMC_6_27_0_0
SDMC_6_28_0_0
SDMC_6_29_0_0
SDMC_6_2_0_0
SDMC_6_30_0_0
SDMC_6_3_0_0
SDMC_6_4_0_0
SDMC_6_5_0_0
SDMC_6_7_0_0
SDMC_6_8_0_0
SDMC_6_9_0_0
SDMC_7_0_0_0
SDMC_7_10_0_0
SDMC_7_11_0_0
SDMC_7_12_0_0
SDMC_7_13_0_0
SDMC_7_14_0_0
SDMC_7_15_0_0
SDMC_7_16_0_0
SDMC_7_17_0_0
SDMC_7_18_0_0
SDMC_7_19_0_0
SDMC_7_1_0_0
SDMC_7_20_0_0
SDMC_7_21_0_0
SDMC_7_22_0_0
SDMC_7_23_0_0
SDMC_7_24_0_0
SDMC_7_25_0_0
SDMC_7_26_0_0
SDMC_7_27_0_0
SDMC_7_28_0_0
SDMC_7_29_0_0
SDMC_7_2_0_0
SDMC_7_30_0_0
SDMC_7_3_0_0
SDMC_7_4_0_0
SDMC_7_5_0_0
SDMC_7_6_0_0
SDMC_7_8_0_0
SDMC_7_9_0_0
SDMC_8_0_0_0
SDMC_8_10_0_0
SDMC_8_11_0_0
SDMC_8_12_0_0
SDMC_8_13_0_0
SDMC_8_14_0_0
SDMC_8_15_0_0
SDMC_8_16_0_0
SDMC_8_17_0_0
SDMC_8_18_0_0
SDMC_8_19_0_0
SDMC_8_1_0_0
SDMC_8_20_0_0
SDMC_8_21_0_0
SDMC_8_22_0_0
SDMC_8_23_0_0
SDMC_8_24_0_0
SDMC_8_25_0_0
SDMC_8_26_0_0
SDMC_8_27_0_0
SDMC_8_28_0_0
SDMC_8_29_0_0
SDMC_8_2_0_0
SDMC_8_30_0_0
SDMC_8_3_0_0
SDMC_8_4_0_0
SDMC_8_5_0_0
SDMC_8_6_0_0
SDMC_8_7_0_0
SDMC_8_9_0_0
SDMC_9_0_0_0
SDMC_9_10_0_0
SDMC_9_11_0_0
SDMC_9_12_0_0
SDMC_9_13_0_0
SDMC_9_14_0_0
SDMC_9_15_0_0
SDMC_9_16_0_0
SDMC_9_17_0_0
SDMC_9_18_0_0
SDMC_9_19_0_0
SDMC_9_1_0_0
SDMC_9_20_0_0
SDMC_9_21_0_0
SDMC_9_22_0_0
SDMC_9_23_0_0
SDMC_9_24_0_0
SDMC_9_25_0_0
SDMC_9_26_0_0
SDMC_9_27_0_0
SDMC_9_28_0_0
SDMC_9_29_0_0
SDMC_9_2_0_0
SDMC_9_30_0_0
SDMC_9_3_0_0
SDMC_9_4_0_0
SDMC_9_5_0_0
SDMC_9_6_0_0
SDMC_9_7_0_0
SDMC_9_8_0_0
End
